(set-logic QF_S)
(set-option :produce-models true)

(declare-fun s4921 () String)
(declare-fun s7763 () String)
(declare-fun s7333 () String)
(declare-fun s7730 () String)
(declare-fun s4544 () String)
(declare-fun s588 () String)
(declare-fun s641 () String)
(declare-fun s6077 () String)
(declare-fun s4028 () String)
(declare-fun s449 () String)
(declare-fun s2938 () String)
(declare-fun s4868 () String)
(declare-fun s585 () String)
(declare-fun s6401 () String)
(declare-fun s7336 () String)
(declare-fun s5800 () String)
(declare-fun s6477 () String)
(declare-fun s3050 () String)
(declare-fun s4706 () String)
(declare-fun s5694 () String)
(declare-fun s7390 () String)
(declare-fun s644 () String)
(declare-fun s7267 () String)
(declare-fun s2049 () String)
(declare-fun s754 () String)
(declare-fun s5893 () String)
(declare-fun s7157 () String)
(declare-fun s7270 () String)
(declare-fun s6239 () String)
(declare-fun s4025 () String)
(declare-fun s4345 () String)
(declare-fun s7211 () String)
(declare-fun s845 () String)
(declare-fun s5746 () String)
(declare-fun s5956 () String)
(declare-fun s3271 () String)
(declare-fun s5959 () String)
(declare-fun s751 () String)
(declare-fun s4348 () String)
(declare-fun s695 () String)
(declare-fun s1895 () String)
(declare-fun s2815 () String)
(declare-fun s2818 () String)
(declare-fun s1235 () String)
(declare-fun s698 () String)
(declare-fun s7527 () String)
(declare-fun s1341 () String)
(declare-fun s1268 () String)
(declare-fun s5518 () String)
(declare-fun s6366 () String)
(declare-fun s4242 () String)
(declare-fun s3053 () String)
(declare-fun s1700 () String)
(declare-fun s1760 () String)
(declare-fun s7594 () String)
(declare-fun s5480 () String)
(declare-fun s4291 () String)
(declare-fun s808 () String)
(declare-fun s5640 () String)
(declare-fun s2884 () String)
(declare-fun s4671 () String)
(declare-fun s1027 () String)
(declare-fun s5890 () String)
(declare-fun s4833 () String)
(declare-fun s5577 () String)
(declare-fun s4188 () String)
(declare-fun s5797 () String)
(declare-fun s881 () String)
(declare-fun s5643 () String)
(declare-fun s1697 () String)
(declare-fun s4397 () String)
(declare-fun s1829 () String)
(declare-fun s4066 () String)
(declare-fun s6204 () String)
(declare-fun s1826 () String)
(declare-fun s2136 () String)
(declare-fun s4638 () String)
(declare-fun s3478 () String)
(declare-fun s3339 () String)
(declare-fun s5574 () String)
(declare-fun s7798 () String)
(declare-fun s7097 () String)
(declare-fun s3177 () String)
(declare-fun s2222 () String)
(declare-fun s5834 () String)
(declare-fun s2762 () String)
(declare-fun s6333 () String)
(declare-fun s523 () String)
(declare-fun s4294 () String)
(declare-fun s444 () String)
(declare-fun s7160 () String)
(declare-fun s4125 () String)
(declare-fun s6604 () String)
(declare-fun s4800 () String)
(declare-fun s1892 () String)
(declare-fun s805 () String)
(declare-fun s1069 () String)
(declare-fun s4245 () String)
(declare-fun s6171 () String)
(declare-fun s7387 () String)
(declare-fun s4394 () String)
(declare-fun s6012 () String)
(declare-fun s1763 () String)
(declare-fun s2881 () String)
(declare-fun s6571 () String)
(declare-fun s5743 () String)
(declare-fun s6435 () String)
(declare-fun s936 () String)
(declare-fun s2984 () String)
(declare-fun s7636 () String)
(declare-fun s5837 () String)
(declare-fun s842 () String)
(declare-fun s1144 () String)
(declare-fun s3135 () String)
(declare-fun s526 () String)
(declare-fun s2987 () String)
(declare-fun s2765 () String)
(declare-fun s7094 () String)
(declare-fun s3304 () String)
(declare-fun s5521 () String)
(declare-fun s1996 () String)
(declare-fun s4479 () String)
(declare-fun s4122 () String)
(declare-fun s7474 () String)
(declare-fun s2935 () String)
(declare-fun s4069 () String)
(declare-fun s4191 () String)
(declare-fun s4502 () String)
(declare-fun s1186 () String)
(declare-fun s6035 () String)
(declare-fun s7214 () String)
(declare-fun s1308 () String)
(declare-fun s5697 () String)
(declare-fun s5477 () String)
(declare-fun s3392 () String)
(declare-fun s127 () String)

(assert (= s4028 s4025 ))
(assert (= s7097 s7094 ))
(assert (not (= s127 s2987 )))
(assert (= s845 s842 ))
(assert (= s6012 s127 ))
(assert (= s4125 s4122 ))
(assert (not (= s127 s4245 )))
(assert (not (= s7474 s127 )))
(assert (= s2884 s2881 ))
(assert (= s127 "(" ))
(assert (= s127 s588 ))
(assert (not (= s1235 s127 )))
(assert (= s1027 s127 ))
(assert (not (= s3339 s127 )))
(assert (= s4502 s127 ))
(assert (= s7214 s7211 ))
(assert (not (= s4544 s127 )))
(assert (not (= s6366 s127 )))
(assert (= s588 s585 ))
(assert (= s7594 s127 ))
(assert (not (= s127 s4294 )))
(assert (= s6035 s127 ))
(assert (not (= s127 s1829 )))
(assert (not (= s127 s5697 )))
(assert (not (= s1268 s127 )))
(assert (not (= s2049 s127 )))
(assert (not (= s7798 s127 )))
(assert (= s698 s695 ))
(assert (not (= s127 s7336 )))
(assert (= s526 s523 ))
(assert (not (= s127 s4125 )))
(assert (= s127 s5480 ))
(assert (= s5959 s5956 ))
(assert (not (= s4868 s127 )))
(assert (not (= s7730 s127 )))
(assert (not (= s127 s5893 )))
(assert (not (= s127 s808 )))
(assert (not (= s2222 s127 )))
(assert (not (= s4638 s127 )))
(assert (= s1763 s1760 ))
(assert (not (= s6571 s127 )))
(assert (not (= s127 s1895 )))
(assert (not (= s127 s754 )))
(assert (not (= s127 s5800 )))
(assert (= s5697 s5694 ))
(assert (not (= s127 s5577 )))
(assert (not (= s4671 s127 )))
(assert (not (= s7527 s127 )))
(assert (not (= s127 s526 )))
(assert (= s5577 s5574 ))
(assert (= s1829 s1826 ))
(assert (= s127 s4069 ))
(assert (not (= s4800 s127 )))
(assert (not (= s1069 s127 )))
(assert (not (= s127 s5959 )))
(assert (= s7270 s7267 ))
(assert (= s2938 s2935 ))
(assert (not (= s127 s7270 )))
(assert (not (= s6333 s127 )))
(assert (= s808 s805 ))
(assert (= s881 s127 ))
(assert (= s4479 s127 ))
(assert (not (= s2136 s127 )))
(assert (not (= s127 s1700 )))
(assert (not (= s6077 s127 )))
(assert (= s7336 s7333 ))
(assert (not (= s1308 s127 )))
(assert (not (= s3177 s127 )))
(assert (not (= s6477 s127 )))
(assert (not (= s6401 s127 )))
(assert (= s7160 s7157 ))
(assert (not (= s127 s5643 )))
(assert (= s5643 s5640 ))
(assert (not (= s7636 s127 )))
(assert (= s127 s4028 ))
(assert (= s449 s444 ))
(assert (not (= s127 s644 )))
(assert (not (= s4921 s127 )))
(assert (not (= s936 s127 )))
(assert (not (= s6171 s127 )))
(assert (= s4348 s4345 ))
(assert (not (= s127 s7390 )))
(assert (not (= s6239 s127 )))
(assert (not (= s127 s4191 )))
(assert (= s754 s751 ))
(assert (= s1700 s1697 ))
(assert (not (= s7763 s127 )))
(assert (= s4191 s4188 ))
(assert (= s3053 s3050 ))
(assert (= s4069 s4066 ))
(assert (not (= s4833 s127 )))
(assert (not (= s127 s7097 )))
(assert (= s7390 s7387 ))
(assert (not (= s127 s3053 )))
(assert (= s2818 s2815 ))
(assert (= s1144 s127 ))
(assert (not (= s1186 s127 )))
(assert (not (= s1341 s127 )))
(assert (= s4294 s4291 ))
(assert (= s3135 s127 ))
(assert (= s5800 s5797 ))
(assert (not (= s127 s2884 )))
(assert (= s1895 s1892 ))
(assert (not (= s127 s2818 )))
(assert (= s2987 s2984 ))
(assert (= s5746 s5743 ))
(assert (not (= s127 s1763 )))
(assert (not (= s3271 s127 )))
(assert (not (= s3304 s127 )))
(assert (not (= s127 s4348 )))
(assert (= s5837 s5834 ))
(assert (not (= s1996 s127 )))
(assert (= s127 s5521 ))
(assert (not (= s127 s5746 )))
(assert (= s127 s5837 ))
(assert (= s6435 s127 ))
(assert (not (= s6604 s127 )))
(assert (not (= s3478 s127 )))
(assert (= s644 s641 ))
(assert (not (= s6204 s127 )))
(assert (not (= s3392 s127 )))
(assert (= s5480 s5477 ))
(assert (not (= s127 s845 )))
(assert (= s2765 s2762 ))
(assert (= s4245 s4242 ))
(assert (not (= s127 s7160 )))
(assert (= s127 s698 ))
(assert (= s127 s449 ))
(assert (= s127 s7214 ))
(assert (= s127 s2765 ))
(assert (= s4397 s4394 ))
(assert (= s5893 s5890 ))
(assert (= s5521 s5518 ))
(assert (not (= s127 s2938 )))
(assert (not (= s4706 s127 )))
(assert (not (= s127 s4397 )))


(check-sat)
(get-model)
